TYPE : Vertex Cover
DIMENSION: 39
EDGE_DATA_SECTION:
0 1
0 2
0 4
0 7
0 18
0 24
0 27
0 29
0 36
1 6
1 7
1 9
1 10
1 14
1 16
1 23
1 24
2 5
2 21
2 28
2 32
2 36
2 38
3 5
3 10
3 17
3 19
3 23
4 6
4 20
4 23
4 26
4 31
4 36
4 37
5 10
5 15
5 19
5 20
5 28
5 36
6 13
6 19
6 22
6 24
6 27
7 9
7 10
7 14
7 18
7 20
7 28
7 35
8 11
8 21
8 36
9 12
9 14
9 22
9 24
9 27
9 35
10 12
10 35
10 37
10 38
11 18
11 20
11 22
11 27
11 30
11 33
12 13
12 34
12 37
13 25
13 27
13 37
14 26
14 34
14 37
14 38
15 16
15 22
15 26
15 30
15 36
16 19
16 21
16 35
16 36
17 18
17 20
17 25
17 34
17 35
17 38
18 26
18 30
18 33
19 21
19 23
19 30
19 31
20 28
20 33
20 34
21 23
21 26
22 37
24 31
25 32
25 34
25 35
26 29
26 35
27 28
27 32
28 31
28 36
28 38
29 33
30 37
31 36
34 36
37 38
-1
VERTEX_DEGREE:
9.0 9.0 7.0 5.0 8.0 8.0 7.0 9.0 3.0 8.0 8.0 7.0 5.0 5.0 7.0 6.0 6.0 7.0 7.0 8.0 8.0 6.0 5.0 5.0 5.0 5.0 7.0 7.0 8.0 3.0 5.0 5.0 3.0 4.0 6.0 7.0 10.0 8.0 6.0
VERTEX_COVER:
0 1 2 3 4 6 9 10 11 12 14 15 17 18 19 20 21 24 25 27 28 29 35 36 37
EOF
